webassembly/ejemplos_dzn/6/folder6_json_16.dzn
TERM = { '.', 's(5)', 's(2)', 's(4)', 'in_1', 'local_0', 'in_2', 'in_3', 's(1)', 's(0)', 's(3)', 'in_0'};
null = '.';
s = 6;
n = 9;
ndeps = 2;
max_registers_sz = 4;
NR = 1;
registers = [|'local_0', 's(5)'|];
dependencies = [|'i32.load8_u_0', 'call[function_index(0)]_4', |'i32.load16_s_2', 'call[function_index(0)]_4'|];
GET_ENUM = { GET1, GET2, GET3, GET4, GET5};
SET_ENUM = { SET1, SET2, SET3, SET4, SET5};
TEE_ENUM = { TEE1, TEE2, TEE3, TEE4, TEE5};
N = 4;
OP = { 'i32.add_0', 'call[function_index(0)]_4', 'i32.load8_u_0', 'i32.load16_s_2' };
in_ops = [2, 3, 1, 1 ];
out_ops = [1, 3, 1, 1 ];
in1 = ['s(1)', 's(2)', 'in_0', 's(0)' ];
in2 = ['in_1', 'in_2', '.', '.' ];
in3 = ['.', 'in_3', '.', '.' ];
out1 = ['s(2)', 's(5)', 's(0)', 's(1)' ];
out2 = ['.', 's(4)', '.', '.' ];
out3 = ['.', 's(3)', '.', '.' ];
comm = [true, false, false, false ];
gas = [1, 1, 1, 1 ];
sz = [1, 1, 1, 1 ];
stor = [false, true, false, false ];
lb = [ 1, 1, 1, 1 ];
ub = [ 6, 6, 6, 6 ];
startstack = [ 'in_0', 'in_1', 'in_2', 'in_3', null, null, null, null, null ];
endstack = [ 's(4)', 's(3)', null, null, null, null, null, null, null ];
